\ This file has been generated by DOcplex
\ ENCODING=ISO-8859-1
\Problem name: pricing

Minimize
 obj: - 0.375000000000 a_0 - 0.500000000000 a_1 - 0.625000000000 a_2
      - 0.312500000000 a_3 - 0.375000000000 a_4 - 0.250000000000 a_5
      - 0.250000000000 a_6 - 0.250000000000 a_7 - 0.375000000000 a_8
      - 0.375000000000 a_9 - 0.500000000000 a_10 - 0.500000000000 a_11 + 1
Subject To
 c1: 4900 a_0 + 5235 a_1 + 7430 a_2 + 3330 a_3 + 4165 a_4 + 2790 a_5 + 3048 a_6
     + 3035 a_7 + 4365 a_8 + 4065 a_9 + 4915 a_10 + 4960 a_11 + 250 a_12
     + 400 a_13 <= 12000

Bounds
       a_0 <= 2
       a_1 <= 2
       a_2 <= 1
       a_3 <= 3
       a_4 <= 2
       a_5 <= 4
       a_6 <= 3
       a_7 <= 3
       a_8 <= 2
       a_9 <= 2
       a_10 <= 2
       a_11 <= 2
       a_12 <= 48
       a_13 <= 30

Generals
 a_0 a_1 a_2 a_3 a_4 a_5 a_6 a_7 a_8 a_9 a_10 a_11 a_12 a_13
End
